34 1000000000
364 114 218 950 260 834 493 146 539 545 162 960 142 72 206 212 805 890 91 284 148 147 216 868 331 606 278 235 919 358 389 972 886 214
-871 318 -172 -405 -443 179 -284 -473 -211 -658 283 886 665 -319 -493 -297 -16 -334 758 -87 652 274 -455 214 710 -997 -553 -600 -262 -962 390 -37 -508 -937
